SPARKNaCl/why3-cvc5/sparknacl-core.adb_503_31_range_check3_1.smt2
;; produced by cvc5.drv ;;
(set-logic ALL)
(set-info :smt-lib-version 2.6)
;;; generated by SMT-LIB2 driver
;;; SMT-LIB2 driver: bit-vectors, common part
;;; SMT-LIB2: integer arithmetic
;; "pow2"
(declare-fun pow2 (Int) Int)

(declare-const two_power_size_minus_one Int)

;; "two_power_size_minus_one_val"
(assert (= two_power_size_minus_one (pow2 (- 32 1))))

;; "min"
(define-fun min ((x Int) (y Int)) Int
  (ite (<= x y) x y))

;; "max"
(define-fun max ((x Int) (y Int)) Int
  (ite (<= x y) y x))

;; "Min_r"
(assert (forall ((x Int) (y Int)) (=> (<= y x) (= (min x y) y))))

;; "Max_l"
(assert (forall ((x Int) (y Int)) (=> (<= y x) (= (max x y) x))))

;; "Min_comm"
(assert (forall ((x Int) (y Int)) (= (min x y) (min y x))))

;; "Max_comm"
(assert (forall ((x Int) (y Int)) (= (max x y) (max y x))))

;; "Min_assoc"
(assert
  (forall ((x Int) (y Int) (z Int)) (= (min (min x y) z) (min x (min y z)))))

;; "Max_assoc"
(assert
  (forall ((x Int) (y Int) (z Int)) (= (max (max x y) z) (max x (max y z)))))

(declare-const two_power_size_minus_one1 Int)

;; "two_power_size_minus_one_val"
(assert (= two_power_size_minus_one1 (pow2 (- 8 1))))

(declare-sort byte 0)

;; "to_rep"
(declare-fun to_rep (byte) (_ BitVec 8))

;; "of_rep"
(declare-fun of_rep ((_ BitVec 8)) byte)

;; "inversion_axiom"
(assert
  (forall ((x byte)) (! (= (of_rep (to_rep x)) x) :pattern ((to_rep x)) )))

;; "range_axiom"
(assert true)

;; "coerce_axiom"
(assert
  (forall ((x (_ BitVec 8)))
    (! (= (to_rep (of_rep x)) x) :pattern ((to_rep (of_rep x))) )))

(declare-sort map1 0)

;; "has_bounds"
(declare-fun has_bounds (map1
  Int
  Int) Bool)

;; "get"
(declare-fun get (map1
  Int) byte)

;; "slide"
(declare-fun slide (map1
  Int
  Int) map1)

;; "slide_eq"
(assert
  (forall ((a map1) (first Int))
    (! (= (slide a first first) a) :pattern ((slide a first first)) )))

;; "slide_def"
(assert
  (forall ((a map1) (old_first Int) (new_first Int))
    (! (and
         (forall ((i Int))
           (! (= (get (slide a old_first new_first) i) (get
                                                         a
                                                         (- i (- new_first old_first)))) :pattern (
           (get
             (slide a old_first new_first)
             i)) ))
         (forall ((new_last Int))
           (! (=>
                (has_bounds a old_first (- new_last (- new_first old_first)))
                (has_bounds (slide a old_first new_first) new_first new_last)) :pattern (
           (has_bounds
             (slide a old_first new_first)
             new_first
             new_last)) ))) :pattern ((slide a old_first new_first)) )))

;; "slice"
(declare-fun slice (map1
  Int
  Int) map1)

;; "slice_eq"
(assert
  (forall ((a map1) (f Int) (l Int))
    (! (=> (has_bounds a f l) (= (slice a f l) a)) :pattern ((slice a f l)
    (has_bounds a f l)) )))

;; "slice_slice"
(assert
  (forall ((a map1) (f1 Int) (l1 Int) (f2 Int) (l2 Int))
    (! (=>
         (and (<= f1 f2) (<= l2 l1))
         (= (slice (slice a f1 l1) f2 l2) (slice a f2 l2))) :pattern (
    (slice
      (slice a f1 l1)
      f2
      l2)) )))

;; "slice_def"
(assert
  (forall ((a map1) (f Int) (l Int))
    (! (forall ((i Int))
         (! (=> (and (<= f i) (<= i l)) (= (get (slice a f l) i) (get a i))) :pattern (
         (get
           (slice a f l)
           i)) :pattern ((get a i)) )) :pattern ((slice a f l)) )))

;; "slice_has_bounds"
(assert
  (forall ((a map1) (f Int) (l Int))
    (! (has_bounds (slice a f l) f l) :pattern ((has_bounds
                                                  (slice a f l)
                                                  f
                                                  l)) )))

;; "ld32"
(declare-fun ld32 (map1) (_ BitVec 32))

;; "ld32__function_guard"
(declare-fun ld32__function_guard ((_ BitVec 32)
  map1) Bool)

(declare-const y map1)

;; Goal "def'vc"
;; File "sparknacl-core.adb", line 423, characters 0-0
(assert
  (not
  (=>
    (has_bounds y 0 63)
    (=>
      (=> (<= 0 3) (and (and (<= 0 0) (<= 0 63)) (and (<= 0 3) (<= 3 63))))
      (let ((temp___2250 (slice y 0 3)))
        (=>
          (ld32__function_guard (ld32 temp___2250) temp___2250)
          (=>
            (=>
              (<= 4 7)
              (and (and (<= 0 4) (<= 4 63)) (and (<= 0 7) (<= 7 63))))
            (let ((temp___2256 (slide (slice y 4 7) 4 0)))
              (=>
                (ld32__function_guard (ld32 temp___2256) temp___2256)
                (=>
                  (=>
                    (<= 8 11)
                    (and (and (<= 0 8) (<= 8 63)) (and (<= 0 11) (<= 11 63))))
                  (let ((temp___2261 (slide (slice y 8 11) 8 0)))
                    (=>
                      (ld32__function_guard (ld32 temp___2261) temp___2261)
                      (=>
                        (=>
                          (<= 12 15)
                          (and
                            (and (<= 0 12) (<= 12 63))
                            (and (<= 0 15) (<= 15 63))))
                        (let ((temp___2266 (slide (slice y 12 15) 12 0)))
                          (=>
                            (ld32__function_guard
                              (ld32 temp___2266)
                              temp___2266)
                            (=>
                              (=>
                                (<= 16 19)
                                (and
                                  (and (<= 0 16) (<= 16 63))
                                  (and (<= 0 19) (<= 19 63))))
                              (let ((temp___2271 (slide (slice y 16 19) 16 0)))
                                (=>
                                  (ld32__function_guard
                                    (ld32 temp___2271)
                                    temp___2271)
                                  (=>
                                    (=>
                                      (<= 20 23)
                                      (and
                                        (and (<= 0 20) (<= 20 63))
                                        (and (<= 0 23) (<= 23 63))))
                                    (let ((temp___2276 (slide
                                                         (slice y 20 23)
                                                         20
                                                         0)))
                                      (=>
                                        (ld32__function_guard
                                          (ld32 temp___2276)
                                          temp___2276)
                                        (=>
                                          (=>
                                            (<= 24 27)
                                            (and
                                              (and (<= 0 24) (<= 24 63))
                                              (and (<= 0 27) (<= 27 63))))
                                          (let ((temp___2281 (slide
                                                               (slice
                                                                 y
                                                                 24
                                                                 27)
                                                               24
                                                               0)))
                                            (=>
                                              (ld32__function_guard
                                                (ld32 temp___2281)
                                                temp___2281)
                                              (=>
                                                (=>
                                                  (<= 28 31)
                                                  (and
                                                    (and
                                                      (<= 0 28)
                                                      (<= 28 63))
                                                    (and
                                                      (<= 0 31)
                                                      (<= 31 63))))
                                                (let ((temp___2286 (slide
                                                                    (slice
                                                                    y
                                                                    28
                                                                    31)
                                                                    28
                                                                    0)))
                                                  (=>
                                                    (ld32__function_guard
                                                      (ld32 temp___2286)
                                                      temp___2286)
                                                    (=>
                                                      (=>
                                                        (<= 32 35)
                                                        (and
                                                          (and
                                                            (<= 0 32)
                                                            (<= 32 63))
                                                          (and
                                                            (<= 0 35)
                                                            (<= 35 63))))
                                                      (let ((temp___2291 
                                                        (slide
                                                          (slice y 32 35)
                                                          32
                                                          0)))
                                                        (=>
                                                          (ld32__function_guard
                                                            (ld32
                                                              temp___2291)
                                                            temp___2291)
                                                          (=>
                                                            (<= 36 39)
                                                            (<= 0 39))))))))))))))))))))))))))))))))

(check-sat)
